766,379
663,288
951,406
415,599
1081,610
436,887
606,-68
786,261
381,406
804,237
745,605
387,257
841,325
611,503
482,342
773,121
602,-97
850,529
723,364
707,393
732,731
945,42
559,646
660,385
814,474
1135,637
293,688
841,487
254,623
710,402
641,486
817,673
611,850
